NAME : prob5d
TYPE : PDTSP
DIMENSION : 11
EDGE_WEIGHT_TYPE : EUC_2D
NODE_COORD_SECTION
1 568 654
2 733 50
3 650 530
4 855 674
5 230 380
6 232 67
7 476 333
8 284 621
9 139 803
10 313 79
11 514 121
PICKUP_AND_DELIVERY_SECTION
1 0 0 0 0 0 0
2 0 0 0 0 7 0
3 0 0 0 0 8 0
4 0 0 0 0 9 0
5 0 0 0 0 10 0
6 0 0 0 0 11 0
7 0 0 0 0 0 2
8 0 0 0 0 0 3
9 0 0 0 0 0 4
10 0 0 0 0 0 5
11 0 0 0 0 0 6
DEPOT_SECTION
1 
-1
EOF
